20 40
1 12 1
1 8 1
1 5 1
1 20 1
2 13 1
2 15 1
2 18 1
2 14 1
3 8 1
3 11 1
3 7 1
3 16 1
4 13 1
4 19 1
4 6 1
4 15 1
5 10 1
5 16 1
5 12 1
6 8 1
6 20 1
6 15 1
7 19 1
7 16 1
7 18 1
8 11 1
9 19 1
9 12 1
9 11 1
9 20 1
10 17 1
10 14 1
10 13 1
11 17 1
12 18 1
13 17 1
14 17 1
14 20 1
15 16 1
18 19 1
